p cnf 102 228
-1 89 -99 -102 0 
-2 79 90 -100 0 
-3 9 24 30 37 56 63 84 91 -99 -102 0 
-4 17 77 92 -100 0 
-5 22 91 -99 -102 0 
-6 64 89 -99 -102 0 
-7 82 93 -99 -102 0 
-5 22 93 -99 -102 0 
-8 16 31 94 -99 -102 0 
-9 3 24 30 37 56 63 84 93 -99 -102 0 
-10 59 94 -99 -102 0 
-11 21 29 53 61 71 93 -99 -102 0 
-6 64 93 -99 -102 0 
-12 92 -100 0 
-13 89 -99 -102 0 
-14 28 65 83 88 89 -99 -102 0 
-15 25 26 85 89 -99 -102 0 
-10 59 89 -99 -102 0 
-16 8 31 89 -99 -102 0 
-17 4 77 89 -99 -102 0 
-18 93 -99 -102 0 
-19 94 -99 -102 0 
-16 8 31 93 -99 -102 0 
-1 -9 3 24 30 37 56 63 84 95 -99 -102 0 
-20 80 -21 11 29 53 61 71 90 -100 0 
-7 82 91 -99 -102 0 
-22 5 94 -99 -102 0 
-23 92 -100 0 
-24 3 9 30 37 56 63 84 92 -100 0 
-7 82 94 -99 -102 0 
-25 15 26 85 -12 92 -100 0 
-9 3 24 30 37 56 63 84 94 -99 -102 0 
-3 9 24 30 37 56 63 84 -26 15 25 85 92 -100 0 
-27 35 36 76 92 -100 0 
-28 14 65 83 88 92 -100 0 
-29 11 21 53 61 71 92 -100 0 
-30 3 9 24 37 56 63 84 96 -99 -102 0 
-31 8 16 97 -99 -102 0 
-5 22 96 -99 -102 0 
-26 15 25 85 -32 96 -99 -102 0 
-33 70 89 -99 -102 0 
-14 28 65 83 88 98 0 
-7 82 98 0 
-34 69 75 92 -100 0 
-28 14 65 83 88 97 -99 -102 0 
-1 98 0 
-35 27 36 76 92 -100 0 
-36 27 35 76 92 -100 0 
-37 3 9 24 30 56 63 84 -26 15 25 85 -38 41 -39 46 90 -100 0 
-40 99 -102 0 
-26 15 25 85 -38 41 -32 96 -99 -102 0 
-21 11 29 53 61 71 -26 15 25 85 -41 38 90 -100 0 
-7 82 96 -99 -102 0 
-42 96 -99 -102 0 
-13 98 0 
-6 64 98 0 
-10 59 98 0 
-43 51 -44 -45 73 -38 41 -46 39 -47 100 0 
-43 51 -44 -46 39 -47 99 -102 0 
-43 51 -44 -32 92 -100 0 
-21 11 29 53 61 71 92 -100 0 
-33 70 98 0 
-15 25 26 85 98 0 
-48 -49 101 -42 -99 -102 0 
-50 101 -42 -99 -102 0 
-36 27 35 76 -51 43 92 -100 0 
-52 96 -99 -102 0 
-40 92 -100 0 
-53 11 21 29 61 71 92 -100 0 
-54 92 -100 0 
-55 92 -100 0 
-31 8 16 -56 3 9 24 30 37 63 84 92 -100 0 
-57 96 -99 -102 0 
-58 96 -99 -102 0 
-59 10 96 -99 -102 0 
-60 96 -99 -102 0 
-61 11 21 29 53 71 96 -99 -102 0 
-62 96 -99 -102 0 
-7 82 -5 22 -63 3 9 24 30 37 56 84 96 -99 -102 0 
-64 6 96 -99 -102 0 
-7 82 -5 22 -65 14 28 83 88 96 -99 -102 0 
-66 96 -99 -102 0 
-48 101 -42 -99 -102 0 
-67 96 -99 -102 0 
-21 11 29 53 61 71 -68 101 -42 -99 -102 0 
-69 34 75 92 -100 0 
-16 8 31 -51 43 92 -100 0 
-70 33 92 -100 0 
-26 15 25 85 92 -100 0 
-71 11 21 29 53 61 96 -99 -102 0 
-72 98 0 
-62 -40 92 -100 0 
-43 51 90 -100 0 
-43 51 96 -99 -102 0 
-40 92 -100 0 
-43 51 -44 -73 45 -74 92 -100 0 
-40 99 -102 0 
-75 34 69 92 -100 0 
-76 27 35 36 98 0 
-77 4 17 94 -99 -102 0 
-78 101 -42 -99 -102 0 
-79 2 92 -100 0 
-21 11 29 53 61 71 -80 20 101 -42 -99 -102 0 
-10 59 -48 101 -42 -99 -102 0 
-31 8 16 89 -99 -102 0 
-46 39 -51 43 92 -100 0 
-81 102 -99 0 
-81 99 -102 0 
-82 7 95 -99 -102 0 
-83 14 28 65 88 92 -100 0 
-51 43 102 -99 0 
-51 43 99 -102 0 
-83 14 28 65 88 -29 11 21 53 61 71 92 -100 0 
-6 64 -80 20 101 -42 -99 -102 0 
-7 82 -5 22 -84 3 9 24 30 37 56 63 96 -99 -102 0 
-85 15 25 26 96 -99 -102 0 
-86 96 -99 -102 0 
-13 -50 101 -42 -99 -102 0 
-87 96 -99 -102 0 
-13 -88 14 28 65 83 96 -99 -102 0 
-7 82 -17 4 77 -63 3 9 24 30 37 56 84 96 -99 -102 0 
-13 -15 25 26 85 -63 3 9 24 30 37 56 84 96 -99 -102 0 
-11 21 29 53 61 71 -25 15 26 85 96 -99 -102 0 
-7 82 -48 101 -42 -99 -102 0 
-37 3 9 24 30 56 63 84 -26 15 25 85 -39 46 -45 73 -51 43 90 -100 0 
-21 11 29 53 61 71 -26 15 25 85 -32 90 -100 0 
-25 -91 -92 0 
13 38 -88 0 
44 67 -89 0 
8 -21 -70 0 
46 53 84 0 
-63 79 98 0 
42 50 -75 0 
9 52 86 0 
-49 54 -100 0 
-3 42 -75 0 
-1 -13 80 0 
-15 37 49 0 
2 -78 -92 0 
18 -47 -52 0 
19 22 96 0 
10 17 87 0 
-6 -80 -101 0 
-41 80 93 0 
8 28 72 0 
21 33 -59 0 
-43 93 -98 0 
38 -66 -77 0 
8 73 81 0 
33 -47 91 0 
-22 73 78 0 
70 81 86 0 
43 88 -90 0 
-29 46 60 0 
-49 -75 -79 0 
19 -73 100 0 
-29 38 -82 0 
-12 -15 87 0 
54 -76 -78 0 
5 -45 -89 0 
-17 -49 -60 0 
13 32 95 0 
-62 69 -95 0 
-20 -30 45 0 
84 88 94 0 
3 65 81 0 
-3 -58 -68 0 
87 88 92 0 
-29 -66 -97 0 
-14 30 -44 0 
43 93 102 0 
-13 27 -58 0 
-6 63 82 0 
43 89 90 0 
-11 13 -98 0 
59 65 -102 0 
17 67 -81 0 
-8 -50 92 0 
86 -91 -95 0 
2 2 14 0 
3 16 -17 0 
-5 -54 74 0 
68 -85 -85 0 
-15 -92 -95 0 
45 62 -95 0 
33 87 -92 0 
-49 78 -95 0 
8 44 -58 0 
-38 -84 90 0 
-46 50 91 0 
-64 -70 -86 0 
24 -42 77 0 
6 30 -71 0 
42 -61 77 0 
61 -91 -95 0 
21 60 79 0 
-52 65 -81 0 
65 -98 -101 0 
-27 50 51 0 
1 33 78 0 
-11 -15 -60 0 
-1 -76 84 0 
67 67 -94 0 
-51 57 68 0 
56 -64 -96 0 
81 -86 -90 0 
-26 40 -72 0 
5 14 -39 0 
46 59 -63 0 
7 8 90 0 
-10 42 -83 0 
26 -54 70 0 
-16 -50 -75 0 
42 55 84 0 
41 75 81 0 
-54 73 -88 0 
-22 -48 95 0 
36 61 -63 0 
50 61 -89 0 
48 79 -102 0 
6 -60 78 0 
-1 19 -56 0 
-17 -34 -97 0 
-62 -86 96 0 
-37 76 -82 0 
41 -78 -83 0 
39 50 -61 0 
-78 -88 -94 0 
